Grasp exp. instance_n_20_m_5_id_4.lp tipoLifted 0 szPool 5 nIteration 100 alpha 0.4 
Academic license - for non-commercial use only
Read LP format model from file ../input/instancesGenerated/instance_n_20_m_5_id_4.lp
Reading time = 0.00 seconds
: 5 rows, 20 columns, 100 nonzeros
Optimize a model with 5 rows, 20 columns and 100 nonzeros
Variable types: 0 continuous, 20 integer (20 binary)
Coefficient statistics:
  Matrix range     [1e+00, 1e+01]
  Objective range  [1e+00, 1e+01]
  Bounds range     [1e+00, 1e+00]
  RHS range        [5e+01, 6e+01]
Found heuristic solution: objective 48.0000000

Explored 0 nodes (0 simplex iterations) in 0.00 seconds
Thread count was 1 (of 8 available processors)

Solution count 1: 48 
No other solutions better than 0

Solution limit reached
Best objective 4.800000000000e+01, best bound -, gap -
C_1:	 3.00 x_1  = 0.000000 + 1.00 x_2  = 1.000000 + 5.00 x_3  = 0.000000 + 2.00 x_4  = 0.000000 + 6.00 x_5  = 1.000000 + 4.00 x_6  = 0.000000 + 7.00 x_7  = 1.000000 + 10.00 x_8  = 1.000000 + 2.00 x_9  = 0.324675 + 2.00 x_10  = 1.000000 + 4.00 x_11  = 1.000000 + 5.00 x_12  = 0.467532 + 10.00 x_13  = 1.000000 + 8.00 x_14  = 0.000000 + 8.00 x_15  = 0.000000 + 4.00 x_16  = 1.000000 + 10.00 x_17  = 0.000000 + 9.00 x_18  = 0.000000 + 5.00 x_19  = 0.000000 + 4.00 x_20  = 1.000000 <= 54.00
C_2:	 8.00 x_1  = 0.000000 + 6.00 x_2  = 1.000000 + 6.00 x_3  = 0.000000 + 7.00 x_4  = 0.000000 + 1.00 x_5  = 1.000000 + 7.00 x_6  = 0.000000 + 6.00 x_7  = 1.000000 + 5.00 x_8  = 1.000000 + 8.00 x_9  = 0.324675 + 10.00 x_10  = 1.000000 + 10.00 x_11  = 1.000000 + 3.00 x_12  = 0.467532 + 10.00 x_13  = 1.000000 + 6.00 x_14  = 0.000000 + 4.00 x_15  = 0.000000 + 8.00 x_16  = 1.000000 + 10.00 x_17  = 0.000000 + 2.00 x_18  = 0.000000 + 7.00 x_19  = 0.000000 + 3.00 x_20  = 1.000000 <= 63.00
C_3:	 5.00 x_1  = 0.000000 + 3.00 x_2  = 1.000000 + 10.00 x_3  = 0.000000 + 6.00 x_4  = 0.000000 + 10.00 x_5  = 1.000000 + 7.00 x_6  = 0.000000 + 1.00 x_7  = 1.000000 + 2.00 x_8  = 1.000000 + 7.00 x_9  = 0.324675 + 5.00 x_10  = 1.000000 + 5.00 x_11  = 1.000000 + 6.00 x_12  = 0.467532 + 10.00 x_13  = 1.000000 + 3.00 x_14  = 0.000000 + 3.00 x_15  = 0.000000 + 3.00 x_16  = 1.000000 + 9.00 x_17  = 0.000000 + 10.00 x_18  = 0.000000 + 7.00 x_19  = 0.000000 + 9.00 x_20  = 1.000000 <= 60.00
C_4:	 10.00 x_1  = 0.000000 + 6.00 x_2  = 1.000000 + 3.00 x_3  = 0.000000 + 9.00 x_4  = 0.000000 + 1.00 x_5  = 1.000000 + 8.00 x_6  = 0.000000 + 8.00 x_7  = 1.000000 + 2.00 x_8  = 1.000000 + 9.00 x_9  = 0.324675 + 5.00 x_10  = 1.000000 + 7.00 x_11  = 1.000000 + 5.00 x_12  = 0.467532 + 7.00 x_13  = 1.000000 + 8.00 x_14  = 0.000000 + 2.00 x_15  = 0.000000 + 8.00 x_16  = 1.000000 + 6.00 x_17  = 0.000000 + 2.00 x_18  = 0.000000 + 9.00 x_19  = 0.000000 + 2.00 x_20  = 1.000000 <= 58.00
C_5:	 6.00 x_1  = 0.000000 + 6.00 x_2  = 1.000000 + 8.00 x_3  = 0.000000 + 7.00 x_4  = 0.000000 + 8.00 x_5  = 1.000000 + 2.00 x_6  = 0.000000 + 9.00 x_7  = 1.000000 + 8.00 x_8  = 1.000000 + 1.00 x_9  = 0.324675 + 7.00 x_10  = 1.000000 + 6.00 x_11  = 1.000000 + 10.00 x_12  = 0.467532 + 2.00 x_13  = 1.000000 + 10.00 x_14  = 0.000000 + 1.00 x_15  = 0.000000 + 5.00 x_16  = 1.000000 + 7.00 x_17  = 0.000000 + 8.00 x_18  = 0.000000 + 8.00 x_19  = 0.000000 + 7.00 x_20  = 1.000000 <= 63.00
Solution initial: 78.025974 
Number Constraints Used in Cover:5
GRASP Method!
Number cuts repeat: 0
value: 78.025974
Number Constraints Used in Cover:12
GRASP Method!
Number cuts repeat: 0
value: 78.025974
Number Constraints Used in Cover:21
GRASP Method!
Number cuts repeat: 0
value: 78.025974
Number Constraints Used in Cover:25
GRASP Method!
Number cuts repeat: 0
value: 78.025974
Number Constraints Used in Cover:34
GRASP Method!
Number cuts repeat: 0
value: 78.025974
Number Constraints Used in Cover:43
GRASP Method!
Number cuts repeat: 0
value: 78.025974
Number Constraints Used in Cover:46
GRASP Method!
Number cuts repeat: 0
value: 78.025974
Number Constraints Used in Cover:52
GRASP Method!
Number cuts repeat: 0
value: 78.025974
Number Constraints Used in Cover:59
GRASP Method!
Number cuts repeat: 0
value: 78.025974
Number Constraints Used in Cover:67
GRASP Method!
Number cuts repeat: 0
value: 78.025974
Number Constraints Used in Cover:76
GRASP Method!
Number cuts repeat: 0
value: 78.025974
Number Constraints Used in Cover:82
GRASP Method!
Number cuts repeat: 0
value: 78.025974
Number Constraints Used in Cover:86
GRASP Method!
Number cuts repeat: 0
value: 78.025974
Number Constraints Used in Cover:91
GRASP Method!
Number cuts repeat: 0
value: 78.025974
Number Constraints Used in Cover:95
GRASP Method!
Number cuts repeat: 0
value: 78.025974
Number Constraints Used in Cover:100
GRASP Method!
Number cuts repeat: 0
value: 78.025974
Number Constraints Used in Cover:100
GRASP Method!
Number cuts repeat: 0
value: 78.025974
Number Constraints Used in Cover:100
GRASP Method!
Number cuts repeat: 0
value: 78.025974
Number Constraints Used in Cover:108
GRASP Method!
Number cuts repeat: 0
value: 78.025974
Number Constraints Used in Cover:114
GRASP Method!
Number cuts repeat: 0
value: 78.025974
Number Constraints Used in Cover:126
GRASP Method!
Number cuts repeat: 0
value: 78.025974
Number Constraints Used in Cover:133
GRASP Method!
Number cuts repeat: 0
value: 78.025974
Number Constraints Used in Cover:137
GRASP Method!
Number cuts repeat: 0
value: 78.025974
Number Constraints Used in Cover:141
GRASP Method!
Number cuts repeat: 0
value: 78.025974
Number Constraints Used in Cover:154
GRASP Method!
Number cuts repeat: 0
value: 78.025974
Number Constraints Used in Cover:166
GRASP Method!
Number cuts repeat: 0
value: 78.025974
Number Constraints Used in Cover:169
GRASP Method!
Number cuts repeat: 0
value: 78.025974
Number Constraints Used in Cover:175
GRASP Method!
Number cuts repeat: 0
value: 78.025974
Number Constraints Used in Cover:186
GRASP Method!
Number cuts repeat: 0
value: 78.025974
Number Constraints Used in Cover:191
GRASP Method!
Number cuts repeat: 0
value: 78.025974
Number Constraints Used in Cover:201
GRASP Method!
Number cuts repeat: 0
value: 78.025974
Number Constraints Used in Cover:207
GRASP Method!
Number cuts repeat: 0
value: 78.025974
Number Constraints Used in Cover:217
GRASP Method!
Number cuts repeat: 0
value: 78.025974
Number Constraints Used in Cover:225
GRASP Method!
Number cuts repeat: 0
value: 78.025974
Number Constraints Used in Cover:233
GRASP Method!
Number cuts repeat: 0
value: 78.025974
Number Constraints Used in Cover:238
GRASP Method!
Number cuts repeat: 0
value: 78.025974
Number Constraints Used in Cover:242
GRASP Method!
Number cuts repeat: 0
value: 78.025974
Number Constraints Used in Cover:252
GRASP Method!
Number cuts repeat: 0
value: 78.025974
Number Constraints Used in Cover:259
GRASP Method!
Number cuts repeat: 0
value: 78.025974
Number Constraints Used in Cover:265
GRASP Method!
Number cuts repeat: 0
value: 78.025974
Number Constraints Used in Cover:273
GRASP Method!
Number cuts repeat: 0
value: 78.025974
Number Constraints Used in Cover:279
GRASP Method!
Number cuts repeat: 0
value: 78.025974
Number Constraints Used in Cover:291
GRASP Method!
Number cuts repeat: 0
value: 78.025974
Number Constraints Used in Cover:298
GRASP Method!
Number cuts repeat: 0
value: 78.025974
Number Constraints Used in Cover:304
GRASP Method!
Number cuts repeat: 0
value: 78.025974
Number Constraints Used in Cover:306
GRASP Method!
Number cuts repeat: 0
value: 78.025974
Number Constraints Used in Cover:316
GRASP Method!
Number cuts repeat: 0
value: 78.025974
Number Constraints Used in Cover:323
GRASP Method!
Number cuts repeat: 0
value: 78.025974
Number Constraints Used in Cover:328
GRASP Method!
Number cuts repeat: 0
value: 78.025974
Number Constraints Used in Cover:332
GRASP Method!
Number cuts repeat: 0
value: 78.025974
Number Constraints Used in Cover:337
GRASP Method!
Number cuts repeat: 0
value: 78.025974
Number Constraints Used in Cover:343
GRASP Method!
Number cuts repeat: 0
value: 78.025974
Number Constraints Used in Cover:349
GRASP Method!
Number cuts repeat: 0
value: 78.025974
Number Constraints Used in Cover:356
GRASP Method!
Number cuts repeat: 0
value: 78.025974
Number Constraints Used in Cover:363
GRASP Method!
Number cuts repeat: 0
value: 78.025974
Number Constraints Used in Cover:369
GRASP Method!
Number cuts repeat: 0
value: 78.025974
Number Constraints Used in Cover:375
GRASP Method!
Number cuts repeat: 0
value: 78.025974
Number Constraints Used in Cover:383
GRASP Method!
Number cuts repeat: 0
value: 78.025974
Number Constraints Used in Cover:389
GRASP Method!
Number cuts repeat: 0
value: 78.025974
Number Constraints Used in Cover:396
GRASP Method!
Number cuts repeat: 0
value: 78.025974
Number Constraints Used in Cover:403
GRASP Method!
Number cuts repeat: 0
value: 78.025974
Number Constraints Used in Cover:407
GRASP Method!
Number cuts repeat: 0
value: 78.025974
Number Constraints Used in Cover:408
GRASP Method!
Number cuts repeat: 0
value: 78.025974
Number Constraints Used in Cover:410
GRASP Method!
Number cuts repeat: 0
value: 78.025974
Number Constraints Used in Cover:420
GRASP Method!
Number cuts repeat: 0
value: 78.025974
Number Constraints Used in Cover:427
GRASP Method!
Number cuts repeat: 0
value: 78.025974
Number Constraints Used in Cover:434
GRASP Method!
Number cuts repeat: 0
value: 78.025974
Number Constraints Used in Cover:437
GRASP Method!
Number cuts repeat: 0
value: 78.025974
Number Constraints Used in Cover:441
GRASP Method!
Number cuts repeat: 0
value: 78.025974
Number Constraints Used in Cover:448
GRASP Method!
Number cuts repeat: 0
value: 78.025974
Number Constraints Used in Cover:453
GRASP Method!
Number cuts repeat: 0
value: 78.025974
Number Constraints Used in Cover:457
GRASP Method!
Number cuts repeat: 0
value: 78.025974
Number Constraints Used in Cover:460
GRASP Method!
Number cuts repeat: 0
value: 78.025974
Number Constraints Used in Cover:465
GRASP Method!
Number cuts repeat: 0
value: 78.025974
Number Constraints Used in Cover:470
GRASP Method!
Number cuts repeat: 0
value: 78.025974
Number Constraints Used in Cover:479
GRASP Method!
Number cuts repeat: 0
value: 78.025974
Number Constraints Used in Cover:486
GRASP Method!
Number cuts repeat: 0
value: 78.025974
Number Constraints Used in Cover:495
GRASP Method!
Number cuts repeat: 0
value: 78.025974
Number Constraints Used in Cover:499
GRASP Method!
Number cuts repeat: 0
value: 78.025974
Number Constraints Used in Cover:503
GRASP Method!
Number cuts repeat: 0
value: 78.025974
Number Constraints Used in Cover:508
GRASP Method!
Number cuts repeat: 0
value: 78.025974
Number Constraints Used in Cover:514
GRASP Method!
Number cuts repeat: 0
value: 78.025974
Number Constraints Used in Cover:522
GRASP Method!
Number cuts repeat: 0
value: 78.025974
Number Constraints Used in Cover:530
GRASP Method!
Number cuts repeat: 0
value: 78.025974
Number Constraints Used in Cover:533
GRASP Method!
Number cuts repeat: 0
value: 78.025974
Number Constraints Used in Cover:539
GRASP Method!
Number cuts repeat: 0
value: 78.025974
Number Constraints Used in Cover:542
GRASP Method!
Number cuts repeat: 0
value: 78.025974
Number Constraints Used in Cover:547
GRASP Method!
Number cuts repeat: 0
value: 78.025974
Number Constraints Used in Cover:551
GRASP Method!
Number cuts repeat: 0
value: 78.025974
Number Constraints Used in Cover:561
GRASP Method!
Number cuts repeat: 0
value: 78.025974
Number Constraints Used in Cover:562
GRASP Method!
Number cuts repeat: 0
value: 78.025974
Number Constraints Used in Cover:565
GRASP Method!
Number cuts repeat: 0
value: 78.025974
Number Constraints Used in Cover:571
GRASP Method!
Number cuts repeat: 0
value: 78.025974
Number Constraints Used in Cover:575
GRASP Method!
Number cuts repeat: 0
value: 78.025974
Number Constraints Used in Cover:580
GRASP Method!
Number cuts repeat: 0
value: 78.025974
Number Constraints Used in Cover:582
GRASP Method!
Number cuts repeat: 0
value: 78.025974
Number Constraints Used in Cover:590
GRASP Method!
Number cuts repeat: 0
value: 78.025974
Number Cuts Final: 590
